Version identifier: 22.1.0.0 | 2022-03-09 | 1a383f8ce
CPXPARAM_Read_DataCheck                          1
1 of 1 MIP starts provided solutions.
MIP start 'm1' defined initial solution with objective 30.0000.
Tried aggregator 3 times.
MIP Presolve eliminated 11474 rows and 1872 columns.
MIP Presolve modified 244 coefficients.
Aggregator did 9863 substitutions.
Reduced MIP has 2090 rows, 10405 columns, and 22895 nonzeros.
Reduced MIP has 10387 binaries, 18 generals, 0 SOSs, and 0 indicators.
Presolve time = 0.08 sec. (83.32 ticks)
Probing fixed 27 vars, tightened 0 bounds.
Probing changed sense of 4 constraints.
Probing time = 0.02 sec. (3.39 ticks)
Tried aggregator 2 times.
Detecting symmetries...
MIP Presolve eliminated 23 rows and 32 columns.
Aggregator did 13 substitutions.
Reduced MIP has 2054 rows, 10360 columns, and 22742 nonzeros.
Reduced MIP has 10342 binaries, 18 generals, 0 SOSs, and 0 indicators.
Presolve time = 0.02 sec. (23.76 ticks)
Probing fixed 2 vars, tightened 0 bounds.
Probing time = 0.02 sec. (3.84 ticks)
Clique table members: 21404.
MIP emphasis: balance optimality and feasibility.
MIP search method: dynamic search.
Parallel mode: deterministic, using up to 8 threads.
Root relaxation solution time = 0.07 sec. (71.20 ticks)

        Nodes                                         Cuts/
   Node  Left     Objective  IInf  Best Integer    Best Bound    ItCnt     Gap

*     0+    0                           30.0000        0.0000           100.00%
      0     0       18.4008  1470       30.0000       18.4008     1765   38.66%
      0     0       29.0000   541       30.0000      Cuts: 58     3595    3.33%
      0     0       29.0000   568       30.0000     Cuts: 111    10291    3.33%

Repeating presolve.
Tried aggregator 3 times.
MIP Presolve eliminated 442 rows and 5730 columns.
MIP Presolve modified 10 coefficients.
Aggregator did 334 substitutions.
Reduced MIP has 1278 rows, 4296 columns, and 9877 nonzeros.
Reduced MIP has 4296 binaries, 0 generals, 0 SOSs, and 0 indicators.
Presolve time = 0.02 sec. (22.50 ticks)
Represolve time = 0.04 sec. (34.93 ticks)

Root node processing (before b&c):
  Real time             =    3.61 sec. (2682.99 ticks)
Parallel b&c, 8 threads:
  Real time             =    0.00 sec. (0.00 ticks)
  Sync time (average)   =    0.00 sec.
  Wait time (average)   =    0.00 sec.
                          ------------
Total (root+branch&cut) =    3.61 sec. (2682.99 ticks)
